SCIP Status        : solving was interrupted [time limit reached]
Total Time         :    3600.00
  solving          :    3600.00
  presolving       :       0.07 (included in solving)
  reading          :       0.00
  copying          :       0.29 (82 #copies) (minimal 0.00, maximal 0.00, average 0.00)
Original Problem   :
  Problem name     : multiplants_mtg1a
  Variables        : 194 (93 binary, 0 integer, 0 implicit integer, 101 continuous)
  Constraints      : 257 initial, 257 maximal
  Objective        : maximize, 1 non-zeros (abs.min = 1, abs.max = 1)
Presolved Problem  :
  Problem name     : t_multiplants_mtg1a
  Variables        : 231 (68 binary, 0 integer, 0 implicit integer, 163 continuous)
  Constraints      : 270 initial, 548 maximal
  Objective        : minimize, 1 non-zeros (abs.min = 1, abs.max = 1)
  Nonzeros         : 1682 constraint, 733 clique table
Presolvers         :   ExecTime  SetupTime  Calls  FixedVars   AggrVars   ChgTypes  ChgBounds   AddHoles    DelCons    AddCons   ChgSides   ChgCoefs
  boundshift       :       0.00       0.00      0          0          0          0          0          0          0          0          0          0
  convertinttobin  :       0.00       0.00      0          0          0          0          0          0          0          0          0          0
  domcol           :       0.00       0.00      3          0          0          0          0          0          0          0          0          0
  dualagg          :       0.00       0.00      0          0          0          0          0          0          0          0          0          0
  dualcomp         :       0.00       0.00      3          0          0          0          0          0          0          0          0          0
  dualinfer        :       0.00       0.00      0          0          0          0          0          0          0          0          0          0
  dualsparsify     :       0.00       0.00      1          0          0          0          0          0          0          0          0          0
  gateextraction   :       0.00       0.00      0          0          0          0          0          0          0          0          0          0
  implics          :       0.00       0.00     11          0          0          0          0          0          0          0          0          0
  inttobinary      :       0.00       0.00      0          0          0          0          0          0          0          0          0          0
  qpkktref         :       0.00       0.00      0          0          0          0          0          0          0          0          0          0
  redvub           :       0.00       0.00      0          0          0          0          0          0          0          0          0          0
  sparsify         :       0.00       0.00      1          0          0          0          0          0          0          0          0          0
  stuffing         :       0.00       0.00      0          0          0          0          0          0          0          0          0          0
  trivial          :       0.00       0.00     26          1          0          0          0          0          0          0          0          0
  tworowbnd        :       0.00       0.00      0          0          0          0          0          0          0          0          0          0
  dualfix          :       0.00       0.00     26          0          0          0          0          0          0          0          0          0
  genvbounds       :       0.00       0.00      0          0          0          0          0          0          0          0          0          0
  probing          :       0.05       0.00      3         13          0          0         46          0          0          0          0          0
  pseudoobj        :       0.00       0.00      0          0          0          0          0          0          0          0          0          0
  symmetry         :       0.00       0.00      1          0          0          0          0          0          0          0          0          0
  vbounds          :       0.00       0.00      2          0          0          0          0          0          0          0          0          0
  knapsack         :       0.00       0.00      0          0          0          0          0          0          0          0          0          0
  setppc           :       0.00       0.00     38         12          0          0          0          0          1          0          0          0
  linear           :       0.01       0.00     36          4          2          0         83          0        125        139         71          0
  logicor          :       0.00       0.00      0          0          0          0          0          0          0          0          0          0
  bounddisjunction :       0.00       0.00      0          0          0          0          0          0          0          0          0          0
  nonlinear        :       0.01       0.00     40          0          0          0          6          0          0       -139          0          0
  benders          :       0.00       0.00      0          0          0          0          0          0          0          0          0          0
  components       :       0.00       0.00      1          0          0          0          0          0          0          0          0          0
  root node        :          -          -      -          0          -          -        175          -          -          -          -          -
Constraints        :     Number  MaxNumber  #Separate #Propagate    #EnfoLP    #EnfoRelax  #EnfoPS    #Check   #ResProp    Cutoffs    DomReds       Cuts    Applied      Conss   Children
  benderslp        :          0          0          0          0     431280          0      68784      94579          0          0          0          0          0          0          0
  integral         :          0          0          0          0     431280          0          0      94579          0          0      43333          0          0        240      29062
  knapsack         :          0+        18          0     425516          0          0          0          0        621         85      27840          0          0          0          0
  setppc           :          6+        28         29    1877556          0          0       3542      94574       4469        143      51495          1          0          0          0
  linear           :        236+       292         29    2605039          0          0      68215      94042      10068       3612    8696078         24          1          0          0
  logicor          :          0+       185         29     173412          0          0          0          0       1426         59      24736          0          0          0          0
  bounddisjunction :          0+        66          0     295865          0          0          0          0         31         18      18223          0          0          0          0
  nonlinear        :         28         28    1209475    2601350     414811          0      68784      91944          0      44940   24509553    7849852    5083731          0     361314
  benders          :          0          0          0          0          0          0      68784         10          0          0          0          0          0          0          0
  countsols        :          0          0          0          0          0          0      68784         10          0          0          0          0          0          0          0
  components       :          0          0          0          0          0          0          0          0          0          0          0          0          0          0          0
Constraint Timings :  TotalTime  SetupTime   Separate  Propagate     EnfoLP     EnfoPS     EnfoRelax   Check    ResProp    SB-Prop
  benderslp        :       0.18       0.00       0.00       0.00       0.15       0.02       0.00       0.01       0.00       0.00
  integral         :      12.23       0.00       0.00       0.00      12.22       0.00       0.00       0.01       0.00       0.00
  knapsack         :       0.43       0.00       0.00       0.34       0.00       0.00       0.00       0.00       0.00       0.09
  setppc           :       0.83       0.00       0.00       0.57       0.00       0.00       0.00       0.03       0.00       0.23
  linear           :      46.68       0.00       0.00      45.18       0.00       0.16       0.00       0.20       0.01       1.13
  logicor          :       1.61       0.00       0.00       1.49       0.00       0.00       0.00       0.00       0.00       0.12
  bounddisjunction :       1.71       0.00       0.00       1.68       0.00       0.00       0.00       0.00       0.00       0.03
  nonlinear        :     799.40       0.00     448.88     198.74     144.31       3.94       0.00       1.12       0.00       2.41
  benders          :       0.02       0.00       0.00       0.00       0.00       0.02       0.00       0.00       0.00       0.00
  countsols        :       0.02       0.00       0.00       0.00       0.00       0.02       0.00       0.00       0.00       0.00
  components       :       0.21       0.00       0.00       0.21       0.00       0.00       0.00       0.00       0.00       0.00
Propagators        : #Propagate   #ResProp    Cutoffs    DomReds
  dualfix          :          7          0          0          0
  genvbounds       :     964552        109         69     266636
  nlobbt           :          0          0          0          0
  obbt             :          4          0          0         19
  probing          :          0          0          0          0
  pseudoobj        :    2992690          0          0       2055
  redcost          :     769701          0          0      16838
  rootredcost      :          8          0          0          3
  symmetry         :          0          0          0          0
  vbounds          :     325008          0          0          0
Propagator Timings :  TotalTime  SetupTime   Presolve  Propagate    ResProp    SB-Prop
  dualfix          :       0.00       0.00       0.00       0.00       0.00       0.00
  genvbounds       :       3.97       0.00       0.00       3.96       0.00       0.01
  nlobbt           :       0.00       0.00       0.00       0.00       0.00       0.00
  obbt             :       0.32       0.00       0.00       0.32       0.00       0.00
  probing          :       0.05       0.00       0.05       0.00       0.00       0.00
  pseudoobj        :       1.40       0.00       0.00       1.39       0.00       0.00
  redcost          :       2.41       0.00       0.00       2.41       0.00       0.00
  rootredcost      :       0.66       0.00       0.00       0.66       0.00       0.00
  symmetry         :       0.31       0.00       0.00       0.31       0.00       0.00
  vbounds          :       1.18       0.00       0.00       1.17       0.00       0.01
Conflict Analysis  :       Time      Calls    Success    DomReds  Conflicts   Literals    Reconvs ReconvLits   Dualrays   Nonzeros   LP Iters   (pool size: [10000,10000])
  propagation      :       0.01        482        427          -       1452       15.7         88        9.5          -          -          -
  infeasible LP    :       0.09       1064        447          -       1259       13.0         34        9.4        383       25.6          0
  bound exceed. LP :      12.87     161596          0          -          0        0.0          0        0.0          0        0.0         31
  strong branching :       0.00          0          0          -          0        0.0          0        0.0          -          -          0
  pseudo solution  :       0.00          0          0          -          0        0.0          0        0.0          -          -          -
  applied globally :       0.01          -          -          0        614        5.5          -          -        359          -          -
  applied locally  :          -          -          -          0        326       14.3          -          -         24          -          -
Separators         :   ExecTime  SetupTime      Calls  RootCalls    Cutoffs    DomReds  FoundCuts ViaPoolAdd  DirectAdd    Applied ViaPoolApp  DirectApp      Conss
  cut pool         :       0.09          -     124136         57          -          -       1297        985          -          -          -          -          -    (maximal pool size:        445)
  aggregation      :       0.88       0.00        738         29          0          0        965        545         23        235        222         13          0
  > cmir           :          -          -          -          -          -          -          -        462         14        165        159          6          -
  > flowcover      :          -          -          -          -          -          -          -         65          8         55         49          6          -
  > knapsackcover  :          -          -          -          -          -          -          -         18          1         15         14          1          -
  cgmip            :       0.00       0.00          0          0          0          0          0          0          0          0          0          0          0
  clique           :       0.00       0.00         29         29          0          0          9         20          0          2          2          0          0
  closecuts        :       0.00       0.00          0          0          0          0          0          0          0          0          0          0          0
  convexproj       :       0.00       0.00          0          0          0          0          0          0          0          0          0          0          0
  disjunctive      :       0.00       0.00          0          0          0          0          0          0          0          0          0          0          0
  eccuts           :       0.00       0.00          0          0          0          0          0          0          0          0          0          0          0
  gauge            :       0.00       0.00          0          0          0          0          0          0          0          0          0          0          0
  gomory           :       0.09       0.00        709         10          0          0        146        288          2         87         86          1          0
  > gomorymi       :          -          -          -          -          -          -          -        280          2         79         78          1          -
  > strongcg       :          -          -          -          -          -          -          -          8          0          8          8          0          -
  impliedbounds    :       0.02       0.00        738         29          0          0        171        114          0         75         75          0          0
  interminor       :       0.00       0.00          0          0          0          0          0          0          0          0          0          0          0
  intobj           :       0.00       0.00          0          0          0          0          0          0          0          0          0          0          0
  mcf              :       0.00       0.00          1          1          0          0          0          0          0          0          0          0          0
  minor            :       0.01       0.00          0          0          0          0          0          0          0          0          0          0          0
  mixing           :       0.19       0.00       7068         29          0          0         16         13          0          2          2          0          0
  oddcycle         :       0.00       0.00          0          0          0          0          0          0          0          0          0          0          0
  rapidlearning    :       0.03       0.00          0          0          0          0          0          0          0          0          0          0          0
  rlt              :       0.00       0.00         10         10          0          0          0          0          0          0          0          0          0
  zerohalf         :       0.11       0.00        719         20          0          0         16          5          1          1          1          0          0
Cutselectors       :   ExecTime  SetupTime      Calls  RootCalls   Selected     Forced   Filtered  RootSelec   RootForc   RootFilt 
  hybrid           :       3.13       0.00    1058002         29    4860879       2099    2356730        137          0        254
Pricers            :   ExecTime  SetupTime      Calls       Vars
  problem variables:       0.00          -          0          0
Branching Rules    :   ExecTime  SetupTime   BranchLP  BranchExt   BranchPS    Cutoffs    DomReds       Cuts      Conss   Children
  allfullstrong    :       0.00       0.00          0          0          0          0          0          0          0          0
  cloud            :       0.00       0.00          0          0          0          0          0          0          0          0
  distribution     :       0.00       0.00          0          0          0          0          0          0          0          0
  fullstrong       :       0.00       0.00          0          0          0          0          0          0          0          0
  inference        :       0.00       0.00          0          0          0          0          0          0          0          0
  leastinf         :       0.00       0.00          0          0          0          0          0          0          0          0
  lookahead        :       0.00       0.00          0          0          0          0          0          0          0          0
  mostinf          :       0.00       0.00          0          0          0          0          0          0          0          0
  multaggr         :       0.00       0.00          0          0          0          0          0          0          0          0
  nodereopt        :       0.00       0.00          0          0          0          0          0          0          0          0
  pscost           :       1.35       0.00          0      68784          0          0          0          0          0     137568
  random           :       0.00       0.00          0          0          0          0          0          0          0          0
  relpscost        :      12.09       0.00      16469          0          0          0      43333          0        245      29062
  vanillafullstrong:       0.00       0.00          0          0          0          0          0          0          0          0
Primal Heuristics  :   ExecTime  SetupTime      Calls      Found       Best
  LP solutions     :       0.00          -          -          0          0
  relax solutions  :       0.00          -          -          0          0
  pseudo solutions :       0.00          -          -          0          0
  strong branching :       0.13          -          -          0          0
  actconsdiving    :       0.00       0.00          0          0          0
  adaptivediving   :       0.77       0.00       7721          0          0
  alns             :       8.92       0.00         20          0          0
  bound            :       0.00       0.00          0          0          0
  clique           :       0.00       0.00          1          0          0
  coefdiving       :       0.00       0.00          0          0          0
  completesol      :       0.00       0.00          0          0          0
  conflictdiving   :       0.39       0.00       7307          0          0
  crossover        :     221.89       0.00         23          1          1
  dins             :       0.00       0.00          0          0          0
  distributiondivin:       2.80       0.00         80          0          0
  dps              :       0.00       0.00          0          0          0
  dualval          :       0.00       0.00          0          0          0
  farkasdiving     :       0.02       0.00          0          0          0
  feaspump         :       0.15       0.00         40          0          0
  fixandinfer      :       0.00       0.00          0          0          0
  fracdiving       :       0.33       0.00       7256          0          0
  gins             :       0.22       0.00          0          0          0
  guideddiving     :       0.31       0.00       7413          0          0
  indicator        :       0.41       0.00          0          0          0
  indicatordiving  :       0.00       0.00          0          0          0
  intdiving        :       0.00       0.00          0          0          0
  intshifting      :       0.03       0.00         12          0          0
  linesearchdiving :       0.29       0.00       7445          0          0
  localbranching   :       0.00       0.00          0          0          0
  locks            :       0.00       0.00          1          0          0
  lpface           :       0.18       0.00          3          0          0
  mpec             :      14.38       0.00         11          0          0
  multistart       :       0.00       0.00          0          0          0
  mutation         :       0.00       0.00          0          0          0
  nlpdiving        :       1.61       0.00          5          1          1
  objpscostdiving  :       0.09       0.00         40          0          0
  octane           :       0.00       0.00          0          0          0
  ofins            :       0.14       0.00          0          0          0
  oneopt           :       0.26       0.00          9          0          0
  padm             :       0.00       0.00          0          0          0
  proximity        :       0.00       0.00          0          0          0
  pscostdiving     :       0.21       0.00         80          0          0
  randrounding     :       0.15       0.00       2976          0          0
  rens             :       2.25       0.00          1          0          0
  reoptsols        :       0.00       0.00          0          0          0
  repair           :       0.00       0.00          0          0          0
  rins             :      12.71       0.00         38          0          0
  rootsoldiving    :       0.20       0.00         41          0          0
  rounding         :       0.49       0.00       3057          0          0
  shiftandpropagate:       0.00       0.00          1          0          0
  shifting         :       0.15       0.00        931          0          0
  simplerounding   :       0.48       0.00          0          0          0
  subnlp           :      10.20       0.00        121          7          7
  trivial          :       0.00       0.00          2          0          0
  trivialnegation  :       0.00       0.00          0          0          0
  trustregion      :       0.00       0.00          0          0          0
  trysol           :       0.28       0.00          0          0          0
  twoopt           :       0.00       0.00          0          0          0
  undercover       :       0.00       0.00          1          0          0
  vbounds          :       0.00       0.00          0          0          0
  veclendiving     :       0.29       0.00       7356          0          0
  zeroobj          :       0.00       0.00          0          0          0
  zirounding       :       0.15       0.00       1000          0          0
  other solutions  :          -          -          -          0          -
Expressions        :   #IntEval  IntEvalTi   #RevProp  RevPropTi    DomReds    Cutoffs  #Estimate  EstimTime  Branching  #Simplify SimplifyTi Simplified
  pow              :   10550358       2.38      19280       0.01      16620          0    3433864       0.40       2171         42       0.00          3
  prod             :   19740165       3.89    2713975       1.37    1117641      14677   35735864     432.42    8553775        271       0.00         43
  sum              :    2299660       0.65    2266668       1.20     827276         20       8387       0.00          0        199       0.00        110
  val              :          0       0.00          0       0.00          0          0          0       0.00          0          0       0.00          0
  var              :   24428335       1.30          0       0.00          0          0          0       0.00          0       1083       0.00         16
  varidx           :          0       0.00          0       0.00          0          0          0       0.00          0          0       0.00          0
Nlhdlrs            :    Detects  DetectAll DetectTime   #IntEval  IntEvalTi   #RevProp  RevPropTi    DomReds    Cutoffs   #Enforce   EnfoTime       Cuts  Branching
  soc              :          0          0       0.00          0       0.00          0       0.00          0          0          0       0.00          0          0
  convex           :          0          0       0.00          0       0.00          0       0.00          0          0          0       0.00          0          0
  concave          :          0          0       0.00          0       0.00          0       0.00          0          0          0       0.00          0          0
  quotient         :          0          0       0.00          0       0.00          0       0.00          0          0          0       0.00          0          0
  quadratic        :         25       1025       0.00   31135021      46.95   15024399      59.74    4635333         34          0       0.00          0          0
  default          :        175       5283       0.00   32592032       9.06    5000473       7.51    1961537      15533   39178086     476.71    7845576          0
  bilinear         :         34         34       0.00   12260846       2.02    2393729       2.94      35251          0   27326935       4.36       4276          0
  perspective      :          0          0       0.00          0       0.00          0       0.00          0          0          0       0.00          0          0
LP                 :       Time      Calls Iterations  Iter/call   Iter/sec  Time-0-It Calls-0-It    ItLimit
  primal LP        :     105.48     176781       8565    1223.57      81.20     105.29     176774
  dual LP          :    1895.98    1803868   24482835      15.41   12913.03     119.09     214926
  lex dual LP      :       0.00          0          0       0.00          -
  barrier LP       :       0.00          0          0       0.00          -       0.00          0
  resolve instable :       0.04          6         10       1.67     256.58
  diving/probing LP:       1.67        833      24301      29.17   14584.88
  strong branching :       4.63       5429      81240      14.96   17542.26          -          -       2547
    (at root node) :          -         19        724      38.11          -
  conflict analysis:       0.00          2         31      15.50          -
NLP relaxation     :
  solve time       :       1.59 (6 calls)
  convexity        :  nonconvex (211 linear rows, 0 convex ineq., 18 nonconvex ineq., 10 nonlinear eq. or two-sided ineq.)
NLP Solvers        :  #Problems  ProblemTi    #Solves  SolveTime      #Iter  Time/Iter      #Okay #TimeLimit #IterLimit #LObjLimit #Interrupt  #NumError #EvalError  #OutOfMem #LicenseEr #OtherTerm   #GlobOpt    #LocOpt  #Feasible #LocInfeas #GlobInfea #Unbounded   #Unknown
  ipopt            :        141       4.88        168      23.85      11296       0.00        156          0         11          0          0          1          0          0          0          0          0         41          1        110          0          0         16
B&B Tree           :
  number of runs   :          1
  nodes            :     499974 (263972 internal, 236002 leaves)
  feasible leaves  :          0
  infeas. leaves   :      49078
  objective leaves :     186923
  nodes (total)    :     499974 (263972 internal, 236002 leaves)
  nodes left       :      19570
  max depth        :         73
  max depth (total):         73
  backtracks       :     141534 (28.3%)
  early backtracks :          0 (0.0%)
  nodes exc. ref.  :          0 (0.0%)
  delayed cutoffs  :        549
  repropagations   :      79705 (1095208 domain reductions, 13 cutoffs)
  avg switch length:      14.19
  switching time   :     224.72
Root Node          :
  First LP value   : +3.65741386161030e+04
  First LP Iters   :        123 (52812.37 Iter/sec)
  First LP Time    :       0.00
  Final Dual Bound : +1.97891291014455e+03
  Final Root Iters :       1121
  Root LP Estimate : +1.69763557611677e+03
Solution           :
  Solutions found  :          9 (9 improvements)
  First Solution   : +2.74163893566079e+02   (in run 1, after 1 nodes, 0.17 seconds, depth 0, found by <feaspump>)
  Gap First Sol.   :   13240.25 %
  Gap Last Sol.    :     107.72 %
  Primal Bound     : +3.91613370326408e+02   (in run 1, after 383635 nodes, 2652.95 seconds, depth 23, found by <fracdiving>)
  Dual Bound       : +8.13456813442251e+02
  Gap              :     107.72 %
Integrals          :      Total       Avg%
  primal-dual      :  111614.98      31.00
  primal-ref       :          -          - (not evaluated)
  dual-ref         :          -          - (not evaluated)
